139 139
1 1 1 1 1 1 1 1 1 1 1 1 1 1 1 1 1 1 1 1 1 1 1 1 1 1 1 1 1 1 1 1 1 1 1 1 1 1 1 1 1 1 1 1 1 1 1 1 1 1 1 1 1 1 1 1 1 1 1 1 1 1 1 1 1 1 1 1 1 1 1 1 1 1 1 1 1 1 1 1 1 1 1 1 1 1 1 1 1 1 1 1 1 1 1 1 1 1 1 1 1 1 1 1 1 1 1 1 1 1 1 1 1 1 1 1 1 1 1 1 1 1 1 1 1 1 1 1 1 1 1 1 1 1 1 1 1 1 1
44
1 2 4 5 7 8 10 12 13 17 25 27 30 31 38 42 44 46 47 48 50 54 60 62 65 66 68 69 73 74 77 80 81 82 92 110 111 112 115 121 122 132 136 138
54
1 2 8 9 10 17 18 21 22 25 27 38 39 41 42 44 46 48 50 52 54 55 56 57 58 59 60 63 65 66 67 69 70 72 73 74 77 78 79 80 81 82 83 92 98 101 111 112 121 122 124 132 136 138
5
3 20 35 129 139
41
1 4 5 7 8 10 12 13 17 19 23 25 31 38 44 47 48 54 60 62 65 66 68 69 74 81 82 92 93 96 106 110 111 112 113 114 115 117 125 132 136
42
1 4 5 7 8 10 12 13 17 19 23 25 31 38 42 44 47 48 50 54 60 62 65 66 68 69 74 81 82 92 93 106 110 111 112 114 115 117 125 126 132 136
20
6 11 14 15 24 26 28 29 32 37 43 45 49 51 64 76 94 131 135 137
43
1 4 5 7 8 10 12 13 17 19 23 25 31 38 42 44 47 48 50 54 60 62 65 66 68 69 74 81 82 92 93 96 106 110 111 112 114 115 117 125 127 132 136
59
1 2 4 5 7 8 9 10 12 13 16 17 18 21 22 25 27 30 31 38 39 42 44 46 47 48 50 54 57 62 63 65 66 67 68 69 70 73 74 77 78 79 80 81 82 86 87 92 109 111 112 115 117 121 122 126 132 136 138
43
2 8 9 17 18 21 22 27 38 39 41 42 46 50 52 55 56 57 58 59 63 65 67 69 70 72 73 77 78 79 80 82 83 92 98 101 102 111 120 121 122 124 138
49
1 2 4 5 7 8 10 12 13 17 19 23 25 31 38 42 44 46 47 48 50 54 60 62 65 66 67 68 69 73 74 77 80 81 82 92 93 96 110 111 112 114 115 117 122 125 127 132 136
13
6 11 14 24 26 29 32 51 64 76 94 131 137
44
1 4 5 7 8 10 12 13 16 17 19 25 31 38 42 44 47 48 50 54 60 65 66 68 69 74 80 81 82 87 92 93 96 110 111 112 114 115 117 125 126 127 132 136
31
1 4 5 7 8 10 12 13 25 30 31 38 44 46 48 54 60 62 65 68 73 74 77 80 81 82 111 112 132 136 138
24
6 11 14 15 24 26 28 29 32 37 43 45 49 51 64 76 91 94 123 130 131 134 135 137
21
6 14 15 26 28 29 32 37 43 49 64 76 91 94 103 123 130 131 134 135 137
21
8 12 16 33 42 47 50 54 69 74 75 82 87 92 108 115 125 126 127 132 136
62
1 2 4 5 7 8 9 10 12 17 18 21 22 25 27 38 39 41 42 44 46 48 50 52 54 55 56 57 58 59 60 63 65 66 67 68 69 70 72 73 74 77 78 79 80 81 82 83 88 92 98 101 102 111 112 115 117 121 122 124 136 138
41
2 8 9 17 18 21 22 27 38 39 41 42 44 46 52 55 56 57 58 59 63 65 67 70 72 73 77 78 79 80 83 92 98 101 102 111 120 121 122 124 138
29
4 5 7 10 12 19 23 25 31 34 47 48 50 54 66 68 69 74 93 96 110 112 114 115 116 125 127 132 136
6
3 20 35 40 129 139
45
2 8 9 17 18 21 22 27 38 39 41 46 52 54 55 56 57 58 59 60 63 65 66 67 69 70 72 73 74 77 78 79 80 83 88 92 95 98 101 102 111 121 122 124 138
48
2 8 9 17 18 21 22 25 27 38 39 41 42 46 50 52 54 55 56 57 58 59 63 65 66 67 69 70 72 74 77 78 79 80 83 88 92 95 98 101 102 111 117 120 121 122 124 138
21
4 5 7 10 19 23 31 34 47 48 54 60 62 68 93 106 110 112 114 132 136
17
6 11 14 24 26 28 29 32 37 49 51 64 76 94 131 135 137
51
1 2 4 5 7 8 10 12 13 17 19 22 25 27 31 38 42 44 46 47 48 50 54 60 62 65 66 67 68 69 73 74 77 80 81 82 92 93 96 110 111 112 115 117 121 122 125 126 132 136 138
25
6 11 14 15 24 26 28 29 32 37 43 45 49 51 64 76 91 94 103 123 130 131 134 135 137
50
1 2 8 9 17 18 21 22 25 27 38 39 41 42 44 46 52 54 55 56 57 58 59 63 65 66 67 69 70 72 73 74 77 78 79 80 81 82 83 92 98 101 102 109 111 120 121 122 124 138
23
6 14 15 24 26 28 29 32 37 43 45 49 64 76 91 94 103 123 130 131 134 135 137
25
6 11 14 15 24 26 28 29 32 37 43 45 49 51 64 76 91 94 103 123 130 131 134 135 137
17
1 8 13 30 42 44 46 65 73 77 80 81 82 86 109 111 138
35
1 4 5 7 8 10 12 13 19 23 25 31 38 44 47 48 54 60 62 65 66 68 69 74 77 81 93 110 111 112 114 115 117 132 136
25
6 11 14 15 24 26 28 29 32 37 43 45 49 51 64 76 91 94 103 123 130 131 134 135 137
13
16 33 42 50 75 80 82 86 87 108 109 121 126
6
19 23 34 93 110 114
6
3 20 35 40 129 139
2
36 128
22
6 14 15 24 26 28 29 32 37 45 49 51 61 64 91 94 103 123 130 131 135 137
67
1 2 4 5 7 8 9 10 12 13 17 18 21 22 25 27 31 38 39 41 42 44 46 47 48 50 52 54 55 56 57 60 62 63 65 66 67 68 69 70 72 73 74 77 78 79 80 81 82 83 92 93 98 101 110 111 112 115 117 121 122 124 125 126 132 136 138
33
2 8 9 17 18 21 22 27 38 39 41 53 55 57 58 59 63 65 67 72 78 79 80 83 88 92 98 101 102 120 121 122 124
5
20 35 40 129 139
39
2 9 17 18 21 22 27 38 39 41 46 50 52 55 56 57 58 59 60 63 65 67 70 72 77 78 79 80 83 88 92 95 98 101 102 120 121 122 124
56
1 2 5 7 8 9 10 12 16 17 18 22 25 27 30 33 38 42 44 46 47 48 50 54 55 57 63 65 66 67 69 73 74 75 77 78 79 80 81 82 86 87 92 108 109 111 112 115 117 121 122 125 126 132 136 138
20
6 14 15 26 28 29 32 43 45 49 64 76 94 103 123 130 131 134 135 137
44
1 2 4 5 7 8 10 12 13 17 18 25 27 30 31 38 42 44 46 48 54 60 62 65 66 68 69 70 73 74 77 80 81 82 86 92 109 111 112 121 122 132 136 138
15
6 14 26 28 29 32 37 43 45 49 64 91 94 135 137
47
1 2 8 9 10 13 17 18 21 22 25 27 30 38 41 42 44 46 50 54 55 56 57 60 63 65 66 67 69 70 73 74 77 78 79 80 81 82 86 92 101 109 111 121 122 124 138
40
1 4 5 7 8 10 12 16 19 23 25 31 38 42 47 48 50 54 66 68 69 74 82 92 93 96 105 106 110 111 112 114 115 116 117 125 126 127 132 136
49
1 2 4 5 7 8 10 12 13 17 19 23 25 31 38 42 44 47 48 50 54 60 62 65 66 67 68 69 74 80 81 82 92 93 96 110 111 112 113 114 115 117 118 121 122 125 126 132 136
24
6 14 15 24 26 28 29 32 37 43 45 49 64 76 91 94 103 104 123 130 131 134 135 137
49
1 2 5 7 8 9 10 12 16 17 19 22 25 33 38 41 42 46 47 48 50 54 65 66 69 74 75 79 80 81 82 87 92 93 96 108 109 111 112 114 115 117 121 122 125 126 127 132 136
14
6 11 14 24 26 29 32 37 51 64 76 94 131 137
25
2 9 17 18 21 22 27 38 41 52 55 56 59 60 67 70 72 83 88 95 98 101 113 122 124
12
39 53 55 57 63 67 72 79 102 120 122 124
59
1 2 4 5 7 8 10 12 13 16 17 19 21 22 23 25 27 31 38 42 44 46 47 48 50 54 56 60 62 65 66 67 68 69 70 74 77 80 81 82 88 92 93 96 98 100 110 111 112 114 115 117 118 121 122 125 126 132 136
37
2 9 17 18 21 22 27 38 39 41 42 46 52 53 55 56 57 58 59 63 65 67 69 72 75 78 79 80 83 92 98 101 102 120 121 122 124
33
2 9 17 18 21 22 27 38 41 46 52 54 55 56 59 60 63 65 67 68 70 77 78 79 80 83 92 95 98 101 121 122 124
34
2 8 9 17 18 21 22 27 38 39 41 42 46 53 55 57 58 59 63 67 72 78 79 80 83 88 92 98 101 102 120 121 122 124
29
2 9 17 18 21 22 27 39 41 55 57 58 59 63 67 72 78 79 83 88 92 98 100 101 102 120 121 122 124
29
2 9 17 18 21 22 27 39 41 52 55 56 57 58 59 63 67 72 78 79 83 88 98 101 102 120 121 122 124
41
1 2 4 5 7 10 12 13 17 21 23 25 31 38 41 44 46 48 52 54 56 60 62 65 66 68 70 74 77 81 83 92 93 110 111 112 113 115 121 132 136
6
37 61 71 91 123 137
28
1 4 5 7 8 10 13 23 25 31 38 44 48 54 60 62 65 66 68 73 74 77 81 110 111 112 132 136
37
2 8 9 17 18 21 22 27 38 39 41 42 46 53 55 56 57 58 59 63 65 67 70 72 78 79 80 83 88 92 98 101 102 120 121 122 124
25
6 11 14 15 24 26 28 29 32 37 43 45 49 51 64 76 91 94 103 123 130 131 134 135 137
60
1 2 4 5 7 8 9 10 12 13 17 18 21 22 25 27 30 31 38 39 41 42 44 46 48 50 54 55 56 60 62 63 65 66 67 68 69 70 72 73 74 77 78 80 81 82 83 86 92 101 109 111 112 115 117 121 122 124 136 138
50
1 2 4 5 7 8 10 12 17 19 21 22 25 27 31 38 42 44 46 47 48 50 54 60 62 65 66 67 68 69 74 77 80 81 82 92 93 96 100 110 111 112 114 115 117 118 121 122 132 136
52
2 8 9 10 17 18 21 22 25 27 38 39 41 42 46 48 52 53 54 55 56 57 58 59 63 65 66 67 68 69 70 72 74 77 78 79 80 83 88 92 98 100 101 102 111 112 117 118 120 121 122 124
44
1 4 5 7 8 10 12 13 17 19 23 25 31 38 44 47 48 54 56 60 62 65 66 67 68 69 70 74 81 82 92 93 96 110 111 112 113 114 115 117 118 121 132 136
60
1 2 4 5 7 8 9 10 12 16 17 19 21 22 25 27 31 38 42 44 46 47 48 50 54 55 65 66 67 68 69 74 75 77 79 80 81 82 87 92 93 96 98 100 101 110 111 112 114 115 117 118 121 122 124 125 126 127 132 136
33
2 8 9 17 18 21 22 27 38 41 44 46 52 54 56 60 63 65 67 68 70 72 73 77 78 80 81 83 92 101 121 122 138
2
61 71
34
2 9 17 18 21 22 27 38 39 41 52 53 55 57 58 59 63 65 67 70 72 78 79 80 83 88 92 98 101 102 120 121 122 124
33
1 2 8 9 10 13 17 18 21 25 27 30 38 42 44 46 62 65 70 73 74 77 78 80 81 82 86 109 111 121 122 136 138
55
1 2 4 5 7 8 10 12 13 16 17 19 21 22 25 27 31 38 42 44 46 47 48 50 54 60 62 65 66 67 68 69 73 74 77 80 81 82 92 93 96 110 111 112 114 115 117 118 121 122 125 126 127 132 136
11
16 33 42 50 55 69 75 79 87 108 126
20
6 11 14 15 24 26 28 29 32 43 49 51 64 76 94 130 131 134 135 137
43
1 2 8 9 10 13 17 18 21 22 25 27 30 31 38 41 42 44 46 54 56 60 62 65 66 67 69 70 73 74 77 78 80 81 82 92 101 111 112 121 122 136 138
38
2 8 9 17 18 21 22 27 38 39 41 42 46 55 56 57 58 59 63 65 67 70 72 73 77 78 79 80 83 92 98 101 102 120 121 122 124 138
37
2 8 9 17 18 21 22 27 38 39 41 42 46 50 53 55 56 57 58 59 63 67 69 72 75 78 79 80 83 92 98 101 102 120 121 122 124
55
1 2 8 9 10 12 13 17 18 21 22 25 27 30 33 38 39 41 42 44 46 48 50 54 55 56 57 63 65 66 67 69 70 72 73 74 77 78 79 80 81 82 86 87 92 101 102 108 109 111 121 122 124 136 138
45
1 2 4 5 7 8 10 12 13 17 25 27 30 31 38 42 44 46 48 50 54 60 62 65 66 68 69 70 73 74 77 80 81 82 86 92 109 111 112 115 121 122 132 136 138
49
1 2 4 5 7 8 9 10 12 13 16 17 25 27 30 33 38 42 44 46 47 48 50 54 65 66 68 69 73 74 77 80 81 82 86 87 92 109 111 112 115 117 121 122 125 126 132 136 138
36
2 9 17 18 21 22 27 38 39 41 52 55 56 57 58 59 60 63 65 67 70 72 78 79 83 88 92 95 98 100 101 102 120 121 122 124
2
84 99
1
85
17
8 30 33 42 44 46 65 73 80 81 82 86 87 108 109 121 122
18
8 12 16 33 42 50 69 75 80 82 86 87 92 108 109 115 125 126
25
17 21 22 39 41 52 54 57 58 59 63 67 72 83 88 92 98 100 101 102 117 118 120 122 124
2
89 99
2
90 100
19
14 15 26 28 29 32 37 45 49 61 64 91 94 103 123 130 134 135 137
68
1 2 4 5 7 8 9 10 12 16 17 18 21 22 25 27 38 39 41 42 44 46 47 48 50 54 55 56 57 58 60 63 65 66 67 68 69 70 72 74 77 78 79 80 81 82 83 87 88 92 93 96 98 100 101 102 111 112 115 117 120 121 122 124 125 126 132 136
33
4 5 7 10 12 19 23 25 31 34 38 47 48 50 54 60 66 68 69 74 92 93 96 110 112 114 115 116 117 125 126 132 136
25
6 11 14 15 24 26 28 29 32 37 43 45 49 51 64 76 91 94 103 123 130 131 134 135 137
8
21 22 41 52 56 83 95 101
29
4 7 10 12 19 25 47 48 50 54 66 68 69 74 92 93 96 105 110 112 114 115 116 117 118 125 127 132 136
1
97
35
2 9 17 18 21 22 27 38 39 41 52 54 55 56 57 58 59 63 67 69 72 78 79 83 88 92 98 100 101 102 117 120 121 122 124
3
84 89 99
14
54 58 66 67 69 83 88 90 92 98 100 117 118 119
38
2 9 17 18 21 22 27 38 39 41 46 52 55 56 57 58 59 63 65 67 69 70 72 77 78 79 80 83 88 92 95 98 101 102 120 121 122 124
29
9 17 18 21 22 27 39 41 53 55 57 58 59 63 67 72 78 79 80 83 88 92 98 101 102 120 121 122 124
15
15 26 28 29 32 37 43 49 64 91 94 103 123 134 135
4
49 104 130 131
9
47 96 105 114 115 116 125 127 133
13
4 5 7 23 47 106 107 110 112 114 116 132 133
3
106 107 133
11
16 33 42 50 75 80 86 87 108 109 126
18
8 27 30 33 42 44 46 50 65 73 80 81 82 86 87 108 109 121
32
1 4 5 7 10 12 19 23 25 31 34 38 47 48 54 60 62 66 68 69 74 93 96 106 110 112 114 115 117 125 132 136
48
1 2 4 5 7 8 9 10 12 13 17 18 21 22 25 27 30 31 38 42 44 46 47 48 50 54 60 62 65 66 67 68 69 73 74 77 80 81 82 92 111 112 117 121 122 132 136 138
48
1 2 4 5 7 8 10 12 13 17 19 23 25 31 38 42 44 47 48 50 54 60 62 65 66 67 68 69 74 77 81 82 92 93 96 106 110 111 112 113 114 115 117 118 125 126 132 136
7
4 48 52 60 68 112 113
31
4 5 7 10 12 19 23 31 34 47 48 50 54 66 68 69 74 93 96 105 106 110 112 114 115 116 125 126 127 132 136
42
1 4 5 7 8 10 12 16 17 19 25 31 38 42 47 48 50 54 60 65 66 68 69 74 81 82 87 92 93 96 105 110 112 114 115 116 117 125 126 127 132 136
14
19 47 93 96 105 106 114 115 116 125 126 127 132 133
41
4 5 7 8 10 12 17 22 25 31 38 42 47 48 50 54 65 66 67 68 69 74 82 88 92 93 96 98 100 110 111 112 115 117 118 121 122 125 126 132 136
14
48 54 66 67 68 69 74 88 96 100 112 117 118 119
3
100 118 119
25
9 18 22 27 39 41 53 55 57 58 59 63 67 72 78 79 83 88 92 98 101 102 120 122 124
55
1 2 8 9 17 18 21 22 25 27 33 38 39 41 42 44 46 48 50 54 55 56 57 58 59 60 63 65 66 67 68 69 70 72 73 74 77 78 79 80 81 82 83 86 92 98 101 102 109 111 117 121 122 124 138
58
1 2 8 9 10 17 18 21 22 25 27 38 39 41 42 44 46 48 50 52 53 54 55 56 57 58 59 63 65 66 67 69 70 72 73 74 77 78 79 80 81 82 83 86 88 92 98 101 102 111 117 120 121 122 124 126 136 138
19
14 15 26 28 29 32 37 43 49 61 64 91 94 103 123 130 134 135 137
36
2 9 17 18 21 22 27 38 39 41 46 52 53 55 56 57 58 59 63 65 67 69 72 78 79 80 83 88 92 98 101 102 120 121 122 124
33
4 5 7 10 12 16 19 25 38 42 47 48 50 54 69 74 82 87 92 93 96 105 110 112 114 115 116 117 125 126 127 132 136
31
5 8 12 16 25 33 38 42 47 48 50 54 69 74 75 82 87 92 93 108 112 114 115 116 117 122 125 126 127 132 136
19
7 10 12 16 19 47 50 69 74 96 105 114 115 116 125 126 127 132 136
2
36 128
6
3 20 35 40 129 139
20
14 15 26 28 29 32 37 43 49 64 76 91 94 104 123 130 131 134 135 137
22
6 11 14 15 24 26 28 29 32 37 43 49 51 64 76 94 104 130 131 134 135 137
45
1 2 4 5 7 8 10 12 13 16 19 23 25 31 38 42 44 47 48 50 54 60 62 66 68 69 74 81 82 92 93 96 106 110 111 112 114 115 116 117 125 126 127 132 136
5
105 106 107 116 133
18
14 15 26 28 29 32 43 49 64 76 91 94 103 123 130 131 134 135
23
6 14 15 24 26 28 29 32 37 43 45 49 64 76 91 94 103 123 130 131 134 135 137
49
1 2 4 5 7 8 10 12 13 16 17 19 23 25 31 38 42 44 47 48 50 54 60 62 65 66 68 69 73 74 77 80 81 82 92 93 96 110 111 112 114 115 117 122 125 126 127 132 136
24
6 11 14 15 24 26 28 29 32 37 43 45 49 51 61 64 76 91 94 123 130 131 135 137
28
1 2 8 9 13 17 18 21 22 25 27 30 38 42 44 46 65 70 73 77 78 80 81 82 111 121 122 138
6
3 20 35 40 129 139
